p cnf 7230 16
-6817 -6855 -6891 0
-6815 -6853 -6889 0
6817 -6892 0
6815 -6890 0
6891 6892 0
6889 6890 0
6887 6888 0
6849 -6888 0
-6849 -6887 0
6885 6886 0
6847 -6886 0
-6847 -6885 0
6855 -6892 0
6853 -6890 0
6859 -6894 0
4952 -6894 0
